nServices=10;
nDrivers=10;
nBuses=10;
maxBuses=15;
startingTime=[28 170 99 148 89 9 81 161 65 113];
durationTime=[28 17 11 29 28 15 18 16 20 23];
durationDist=[41 54 37 50 45 30 60 23 40 22];
passangers=[10 21 16 14 5 17 13 14 5 3];
capacity=[30 29 18 28 22 19 28 10 11 15];
costTime=[8 7 10 6 9 6 7 8 10 7];
costDist=[6 4 4 2 2 5 2 2 3 6];
maxTime=[28 28 59 30 20 38 57 55 48 45];
costBM=[7 8 5 6 8 7 8 6 7 6];
costEM=[12 11 12 11 10 10 12 12 8 8];
BM=[13 14 13 16 12 15 12 13 20 10];
